;; produced by z3_gnatprove.drv ;;
(set-info :smt-lib-version 2.5)
(set-info :source |VC generated by SPARK 2014|)
(set-info :category industrial)
(set-info :status unknown)
;;; generated by SMT-LIB2 driver
;;; SMT-LIB2 driver: bit-vectors, common part
;;; SMT-LIB2: integer arithmetic
(declare-sort string 0)

(declare-datatypes () ((tuple0 (Tuple0))))
(declare-sort us_private 0)

(declare-fun private__bool_eq (us_private us_private) Bool)

(declare-const us_null_ext__ us_private)

(declare-sort us_type_of_heap 0)

(declare-datatypes ()
((us_type_of_heap__ref
 (us_type_of_heap__refqtmk (us_type_of_heap__content us_type_of_heap)))))
(declare-sort us_image 0)

(declare-datatypes () ((int__ref (int__refqtmk (int__content Int)))))
(declare-datatypes () ((bool__ref (bool__refqtmk (bool__content Bool)))))
(declare-datatypes ()
((us_fixed__ref (us_fixed__refqtmk (us_fixed__content Int)))))
(declare-datatypes () ((real__ref (real__refqtmk (real__content Real)))))
(declare-datatypes ()
((us_private__ref (us_private__refqtmk (us_private__content us_private)))))
(define-fun int__ref___projection ((a int__ref)) Int (int__content a))

(define-fun us_fixed__ref___projection ((a us_fixed__ref)) Int (us_fixed__content
                                                               a))

(define-fun bool__ref___projection ((a bool__ref)) Bool (bool__content a))

(define-fun real__ref___projection ((a real__ref)) Real (real__content a))

(define-fun us_private__ref___projection ((a us_private__ref)) us_private 
  (us_private__content a))

(declare-fun nth ((_ BitVec 8) Int) Bool)

(declare-fun lsr ((_ BitVec 8) Int) (_ BitVec 8))

(declare-fun asr ((_ BitVec 8) Int) (_ BitVec 8))

(declare-fun lsl ((_ BitVec 8) Int) (_ BitVec 8))

(define-fun abs1 ((x Int)) Int (ite (<= 0 x) x (- x)))

;; Abs_le
  (assert
  (forall ((x Int) (y Int)) (= (<= (abs1 x) y) (and (<= (- y) x) (<= x y)))))

;; Abs_pos
  (assert (forall ((x Int)) (<= 0 (abs1 x))))

(declare-fun rotate_right1 ((_ BitVec 8) Int) (_ BitVec 8))

(declare-fun rotate_left1 ((_ BitVec 8) Int) (_ BitVec 8))

(declare-fun pow2 (Int) Int)

(define-fun to_int1 ((x (_ BitVec 8))) Int (ite (bvsge x (_ bv0 8))
                                           (bv2int x) (- (- 256 (bv2int x)))))

(define-fun uint_in_range ((i Int)) Bool (and (<= 0 i) (<= i 255)))

(declare-fun nth_bv ((_ BitVec 8) (_ BitVec 8)) Bool)

(declare-fun eq_sub_bv ((_ BitVec 8) (_ BitVec 8) (_ BitVec 8)
  (_ BitVec 8)) Bool)

(define-fun eq_sub ((a (_ BitVec 8)) (b (_ BitVec 8)) (i Int)
  (n Int)) Bool (forall ((j Int))
                (=> (and (<= i j) (< j (+ i n))) (= (nth a j) (nth b j)))))

(declare-datatypes () ((t__ref (t__refqtmk (t__content (_ BitVec 8))))))
(declare-fun power ((_ BitVec 8) Int) (_ BitVec 8))

(define-fun bv_min ((x (_ BitVec 8))
  (y (_ BitVec 8))) (_ BitVec 8) (ite (bvule x y) x y))

(define-fun bv_max ((x (_ BitVec 8))
  (y (_ BitVec 8))) (_ BitVec 8) (ite (bvule x y) y x))

(define-fun min ((x Int) (y Int)) Int (ite (<= x y) x y))

(define-fun max ((x Int) (y Int)) Int (ite (<= x y) y x))

;; Min_r
  (assert (forall ((x Int) (y Int)) (=> (<= y x) (= (min x y) y))))

;; Max_l
  (assert (forall ((x Int) (y Int)) (=> (<= y x) (= (max x y) x))))

;; Min_comm
  (assert (forall ((x Int) (y Int)) (= (min x y) (min y x))))

;; Max_comm
  (assert (forall ((x Int) (y Int)) (= (max x y) (max y x))))

;; Min_assoc
  (assert
  (forall ((x Int) (y Int) (z Int)) (= (min (min x y) z) (min x (min y z)))))

;; Max_assoc
  (assert
  (forall ((x Int) (y Int) (z Int)) (= (max (max x y) z) (max x (max y z)))))

(declare-sort integer 0)

(declare-fun integerqtint (integer) Int)

;; integer'axiom
  (assert
  (forall ((i integer))
  (and (<= (- 2147483648) (integerqtint i)) (<= (integerqtint i) 2147483647))))

(define-fun in_range ((x Int)) Bool (and (<= (- 2147483648) x)
                                    (<= x 2147483647)))

(declare-fun attr__ATTRIBUTE_IMAGE (Int) us_image)

(declare-fun attr__ATTRIBUTE_VALUE__pre_check (us_image) Bool)

(declare-fun attr__ATTRIBUTE_VALUE (us_image) Int)

(declare-fun user_eq (integer integer) Bool)

(declare-const dummy integer)

(declare-datatypes ()
((integer__ref (integer__refqtmk (integer__content integer)))))
(define-fun integer__ref_integer__content__projection ((a integer__ref)) integer 
  (integer__content a))

(define-fun dynamic_invariant ((temp___expr_18 Int) (temp___is_init_14 Bool)
  (temp___skip_constant_15 Bool) (temp___do_toplevel_16 Bool)
  (temp___do_typ_inv_17 Bool)) Bool (=>
                                    (or (= temp___is_init_14 true)
                                    (<= (- 2147483648) 2147483647)) (in_range
                                    temp___expr_18)))

(define-fun to_rep ((x integer)) Int (integerqtint x))

(declare-fun of_rep (Int) integer)

;; inversion_axiom
  (assert
  (forall ((x integer)) (! (= (of_rep (to_rep x)) x) :pattern ((to_rep x)) )))

;; range_axiom
  (assert
  (forall ((x integer)) (! (in_range (to_rep x)) :pattern ((to_rep x)) )))

;; coerce_axiom
  (assert
  (forall ((x Int))
  (! (=> (in_range x) (= (to_rep (of_rep x)) x)) :pattern ((to_rep
                                                           (of_rep x))) )))

(declare-sort map1 0)

(declare-datatypes () ((map__ref (map__refqtmk (map__content map1)))))
(declare-fun get (map1 Int (_ BitVec 8) Int) integer)

(declare-fun set (map1 Int (_ BitVec 8) Int integer) map1)

;; Select_eq
  (assert
  (forall ((m map1))
  (forall ((i Int))
  (forall ((j (_ BitVec 8)))
  (forall ((k Int))
  (forall ((a integer))
  (! (= (get (set m i j k a) i j k) a) :pattern ((set m i j k a)) )))))))

;; Select_neq
  (assert
  (forall ((m map1))
  (forall ((i Int) (i2 Int))
  (forall ((j (_ BitVec 8)) (j2 (_ BitVec 8)))
  (forall ((k Int) (k2 Int))
  (forall ((a integer))
  (! (=> (not (and (= i i2) (and (= j j2) (= k k2))))
     (= (get (set m i j k a) i2 j2 k2) (get m i2 j2 k2))) :pattern ((get
                                                                    (set m i
                                                                    j k a) i2
                                                                    j2 k2)) :pattern (
  (set m i j k a) (get m i2 j2 k2)) )))))))

(declare-fun slide (map1 Int Int (_ BitVec 8) (_ BitVec 8) Int Int) map1)

;; slide_def
  (assert
  (forall ((a map1))
  (forall ((old_first Int) (new_first Int))
  (forall ((old_first_2 (_ BitVec 8)) (new_first_2 (_ BitVec 8)))
  (forall ((old_first_3 Int) (new_first_3 Int))
  (forall ((i Int))
  (forall ((j (_ BitVec 8)))
  (forall ((k Int))
  (! (= (get
        (slide a old_first new_first old_first_2 new_first_2 old_first_3
        new_first_3) i j k) (get a (- i (- new_first old_first))
                            (bvsub j (bvsub new_first_2 old_first_2))
                            (- k (- new_first_3 old_first_3)))) :pattern (
  (get
  (slide a old_first new_first old_first_2 new_first_2 old_first_3
  new_first_3) i j k)) )))))))))

(define-fun bool_eq ((a map1) (a__first Int) (a__last Int)
  (a__first_2 (_ BitVec 8)) (a__last_2 (_ BitVec 8)) (a__first_3 Int)
  (a__last_3 Int) (b map1) (b__first Int) (b__last Int)
  (b__first_2 (_ BitVec 8)) (b__last_2 (_ BitVec 8)) (b__first_3 Int)
  (b__last_3 Int)) Bool (ite (and
                             (and
                             (and
                             (ite (<= a__first a__last)
                             (and (<= b__first b__last)
                             (= (- a__last a__first) (- b__last b__first)))
                             (< b__last b__first))
                             (ite (bvule a__first_2 a__last_2)
                             (and (bvule b__first_2 b__last_2)
                             (= (bvsub a__last_2 a__first_2) (bvsub b__last_2 b__first_2)))
                             (bvugt b__first_2 b__last_2)))
                             (ite (<= a__first_3 a__last_3)
                             (and (<= b__first_3 b__last_3)
                             (= (- a__last_3 a__first_3) (- b__last_3 b__first_3)))
                             (< b__last_3 b__first_3)))
                             (forall ((temp___idx_156 Int)
                             (temp___idx_158 Int))
                             (forall ((temp___idx_157 (_ BitVec 8)))
                             (=>
                             (and
                             (and
                             (and (<= a__first temp___idx_156)
                             (<= temp___idx_156 a__last))
                             (and (bvule a__first_2 temp___idx_157)
                             (bvule temp___idx_157 a__last_2)))
                             (and (<= a__first_3 temp___idx_158)
                             (<= temp___idx_158 a__last_3)))
                             (= (to_rep
                                (get a temp___idx_156 temp___idx_157
                                temp___idx_158)) (to_rep
                                                 (get b
                                                 (+ (- b__first a__first) temp___idx_156)
                                                 (bvadd (bvsub b__first_2 a__first_2) temp___idx_157)
                                                 (+ (- b__first_3 a__first_3) temp___idx_158))))))))
                        true false))

;; bool_eq_rev
  (assert
  (forall ((a map1) (b map1))
  (forall ((a__first Int) (a__last Int) (a__first_3 Int) (a__last_3 Int)
  (b__first Int) (b__last Int) (b__first_3 Int) (b__last_3 Int))
  (forall ((a__first_2 (_ BitVec 8)) (a__last_2 (_ BitVec 8))
  (b__first_2 (_ BitVec 8)) (b__last_2 (_ BitVec 8)))
  (=>
  (= (bool_eq b b__first b__last b__first_2 b__last_2 b__first_3 b__last_3 a
     a__first a__last a__first_2 a__last_2 a__first_3 a__last_3) true)
  (and
  (and
  (and
  (ite (<= a__first a__last)
  (and (<= b__first b__last) (= (- a__last a__first) (- b__last b__first)))
  (< b__last b__first))
  (ite (bvule a__first_2 a__last_2)
  (and (bvule b__first_2 b__last_2)
  (= (bvsub a__last_2 a__first_2) (bvsub b__last_2 b__first_2)))
  (bvugt b__first_2 b__last_2)))
  (ite (<= a__first_3 a__last_3)
  (and (<= b__first_3 b__last_3)
  (= (- a__last_3 a__first_3) (- b__last_3 b__first_3)))
  (< b__last_3 b__first_3)))
  (forall ((temp___idx_156 Int) (temp___idx_158 Int))
  (forall ((temp___idx_157 (_ BitVec 8)))
  (=>
  (and
  (and (and (<= a__first temp___idx_156) (<= temp___idx_156 a__last))
  (and (bvule a__first_2 temp___idx_157) (bvule temp___idx_157 a__last_2)))
  (and (<= a__first_3 temp___idx_158) (<= temp___idx_158 a__last_3)))
  (= (to_rep (get a temp___idx_156 temp___idx_157 temp___idx_158)) (to_rep
                                                                   (get b
                                                                   (+ (- b__first a__first) temp___idx_156)
                                                                   (bvadd (bvsub b__first_2 a__first_2) temp___idx_157)
                                                                   (+ (- b__first_3 a__first_3) temp___idx_158)))))))))))))

(declare-const a_3d_arr map1)

(declare-const attr__ATTRIBUTE_ADDRESS Int)

(declare-const attr__ATTRIBUTE_ADDRESS1 Int)

(declare-const x Int)

(declare-const attr__ATTRIBUTE_ADDRESS2 Int)

(declare-const y (_ BitVec 8))

(declare-const attr__ATTRIBUTE_ADDRESS3 Int)

(declare-const z Int)

(declare-const attr__ATTRIBUTE_ADDRESS4 Int)

(declare-const v1 Int)

(declare-const attr__ATTRIBUTE_ADDRESS5 Int)

(declare-const v2 Int)

(declare-const attr__ATTRIBUTE_ADDRESS6 Int)

(declare-sort i 0)

(declare-fun iqtint (i) Int)

;; i'axiom
  (assert (forall ((i1 i)) (and (<= 1 (iqtint i1)) (<= (iqtint i1) 10))))

(define-fun in_range1 ((x1 Int)) Bool (and (<= 1 x1) (<= x1 10)))

(declare-fun attr__ATTRIBUTE_IMAGE1 (Int) us_image)

(declare-fun attr__ATTRIBUTE_VALUE__pre_check1 (us_image) Bool)

(declare-fun attr__ATTRIBUTE_VALUE1 (us_image) Int)

(declare-fun user_eq1 (i i) Bool)

(declare-const dummy1 i)

(declare-datatypes () ((i__ref (i__refqtmk (i__content i)))))
(define-fun i__ref_i__content__projection ((a i__ref)) i (i__content a))

(define-fun dynamic_invariant1 ((temp___expr_172 Int)
  (temp___is_init_168 Bool) (temp___skip_constant_169 Bool)
  (temp___do_toplevel_170 Bool)
  (temp___do_typ_inv_171 Bool)) Bool (=>
                                     (or (= temp___is_init_168 true)
                                     (<= 1 10)) (in_range1 temp___expr_172)))

(declare-sort m 0)

(define-fun in_range2 ((x1 (_ BitVec 8))) Bool (and (bvule #x00 x1)
                                               (bvule x1 #x07)))

(define-fun in_range_int ((x1 Int)) Bool (and (<= 0 x1) (<= x1 7)))

(declare-fun attr__ATTRIBUTE_IMAGE2 ((_ BitVec 8)) us_image)

(declare-fun attr__ATTRIBUTE_VALUE__pre_check2 (us_image) Bool)

(declare-fun attr__ATTRIBUTE_VALUE2 (us_image) (_ BitVec 8))

(declare-fun user_eq2 (m m) Bool)

(declare-const dummy2 m)

(declare-datatypes () ((m__ref (m__refqtmk (m__content m)))))
(define-fun m__ref_m__content__projection ((a m__ref)) m (m__content a))

(define-fun dynamic_invariant2 ((temp___expr_179 (_ BitVec 8))
  (temp___is_init_175 Bool) (temp___skip_constant_176 Bool)
  (temp___do_toplevel_177 Bool)
  (temp___do_typ_inv_178 Bool)) Bool (=>
                                     (or (= temp___is_init_175 true)
                                     (bvule #x00 #x07)) (in_range2
                                     temp___expr_179)))

(declare-sort e 0)

(define-fun in_range3 ((x1 Int)) Bool (and (<= 0 x1) (<= x1 2)))

(declare-fun attr__ATTRIBUTE_IMAGE3 (Int) us_image)

(declare-fun attr__ATTRIBUTE_VALUE__pre_check3 (us_image) Bool)

(declare-fun attr__ATTRIBUTE_VALUE3 (us_image) Int)

(declare-fun user_eq3 (e e) Bool)

(declare-const dummy3 e)

(declare-datatypes () ((e__ref (e__refqtmk (e__content e)))))
(define-fun e__ref_e__content__projection ((a e__ref)) e (e__content a))

(define-fun dynamic_invariant3 ((temp___expr_186 Int)
  (temp___is_init_182 Bool) (temp___skip_constant_183 Bool)
  (temp___do_toplevel_184 Bool)
  (temp___do_typ_inv_185 Bool)) Bool (=>
                                     (or (= temp___is_init_182 true)
                                     (<= 0 2)) (in_range3 temp___expr_186)))

(declare-fun update_logic_fn__a_3d_arr__aggregate_def (Int) map1)

(declare-fun temp_____aggregate_def_263 (map1 Int (_ BitVec 8) Int Int Int
  (_ BitVec 8) Int Int) map1)

(declare-fun temp_____aggregate_def_277 (Int) map1)

;; a_3d_arr__def_axiom
  (assert (= a_3d_arr (update_logic_fn__a_3d_arr__aggregate_def 1000)))

(declare-const rliteral integer)

;; rliteral_axiom
  (assert (= (integerqtint rliteral) 1000))

;; def_axiom
  (assert
  (forall ((temp___164 Int))
  (=> (dynamic_invariant temp___164 true true true true)
  (forall ((temp___165 Int) (temp___167 Int))
  (forall ((temp___166 (_ BitVec 8)))
  (= (get (update_logic_fn__a_3d_arr__aggregate_def temp___164) temp___165
     temp___166 temp___167) rliteral))))))

;; def_axiom
  (assert
  (forall ((temp___279 Int))
  (=> (dynamic_invariant temp___279 true true true true)
  (forall ((temp___280 Int) (temp___282 Int))
  (forall ((temp___281 (_ BitVec 8)))
  (= (get (temp_____aggregate_def_277 temp___279) temp___280 temp___281
     temp___282) rliteral))))))

;; def_axiom
  (assert
  (forall ((temp___265 map1))
  (forall ((temp___266 Int) (temp___268 Int) (temp___269 Int)
  (temp___270 Int) (temp___272 Int) (temp___273 Int))
  (forall ((temp___267 (_ BitVec 8)) (temp___271 (_ BitVec 8)))
  (let ((temp___264 (temp_____aggregate_def_263 temp___265 temp___266
                    temp___267 temp___268 temp___269 temp___270 temp___271
                    temp___272 temp___273)))
  (=>
  (and (dynamic_invariant1 temp___266 true true true true)
  (and
  (and
  (and (dynamic_invariant2 temp___267 true true true true)
  (dynamic_invariant3 temp___268 true true true true))
  (and (dynamic_invariant temp___269 true true true true) (dynamic_invariant1
  temp___270 true true true true)))
  (and
  (and (dynamic_invariant2 temp___271 true true true true)
  (dynamic_invariant3 temp___272 true true true true)) (dynamic_invariant
  temp___273 true true true true))))
  (forall ((temp___274 Int) (temp___276 Int))
  (forall ((temp___275 (_ BitVec 8)))
  (ite (and (and (= temp___274 temp___270) (= temp___275 temp___271))
       (= temp___276 temp___272))
  (= (to_rep (get temp___264 temp___274 temp___275 temp___276)) temp___273)
  (ite (and (and (= temp___274 temp___266) (= temp___275 temp___267))
       (= temp___276 temp___268))
  (= (to_rep (get temp___264 temp___274 temp___275 temp___276)) temp___269)
  (= (get temp___264 temp___274 temp___275 temp___276) (get temp___265
                                                       temp___274 temp___275
                                                       temp___276))))))))))))

(declare-const a map1)

;; Assume
  (assert true)

;; Assume
  (assert (= (update_logic_fn__a_3d_arr__aggregate_def 1000) a_3d_arr))

;; Assume
  (assert true)

;; Assume
  (assert (dynamic_invariant1 x true false true true))

;; Assume
  (assert (dynamic_invariant2 y true false true true))

;; Assume
  (assert (dynamic_invariant3 z true false true true))

;; Assume
  (assert (dynamic_invariant v1 true false true true))

;; Assume
  (assert (dynamic_invariant v2 true false true true))

(declare-const a1 map1)

;; H
  (assert (= a1 a_3d_arr))

(declare-const o integer)

;; Ensures
  (assert (= (to_rep o) v1))

(declare-const a2 map1)

;; H
  (assert (= a2 (set a1 5 #x07 1 o)))

(declare-const o1 integer)

;; Ensures
  (assert (= (to_rep o1) v2))

(declare-const a3 map1)

;; H
  (assert (= a3 (set a2 x y z o1)))

(assert
;; defqtvc
 ;; File "update_logic_fn.ads", line 55, characters 0-0
  (not
  (= (bool_eq a3 1 10 #x00 #x07 0 2
     (temp_____aggregate_def_263 (temp_____aggregate_def_277 1000) 5 #x07 1
     v1 x y z v2) 1 10 #x00 #x07 0 2) true)))
(check-sat)
